NAME /Users/henri/Research/solvers/instances/idol-instances/robust/collection/cflp_Cheng_et_al_2021/Cap_F30_C35_d80/uncertainty_sets/gamma-4_00
ROWS
 N  OBJ
 L  budget
COLUMNS
    MARKER    'MARKER'                 'INTORG'
    u_0        OBJ        0
    u_0        budget     1
    u_1        OBJ        0
    u_1        budget     1
    u_2        OBJ        0
    u_2        budget     1
    u_3        OBJ        0
    u_3        budget     1
    u_4        OBJ        0
    u_4        budget     1
    u_5        OBJ        0
    u_5        budget     1
    u_6        OBJ        0
    u_6        budget     1
    u_7        OBJ        0
    u_7        budget     1
    u_8        OBJ        0
    u_8        budget     1
    u_9        OBJ        0
    u_9        budget     1
    u_10       OBJ        0
    u_10       budget     1
    u_11       OBJ        0
    u_11       budget     1
    u_12       OBJ        0
    u_12       budget     1
    u_13       OBJ        0
    u_13       budget     1
    u_14       OBJ        0
    u_14       budget     1
    u_15       OBJ        0
    u_15       budget     1
    u_16       OBJ        0
    u_16       budget     1
    u_17       OBJ        0
    u_17       budget     1
    u_18       OBJ        0
    u_18       budget     1
    u_19       OBJ        0
    u_19       budget     1
    u_20       OBJ        0
    u_20       budget     1
    u_21       OBJ        0
    u_21       budget     1
    u_22       OBJ        0
    u_22       budget     1
    u_23       OBJ        0
    u_23       budget     1
    u_24       OBJ        0
    u_24       budget     1
    u_25       OBJ        0
    u_25       budget     1
    u_26       OBJ        0
    u_26       budget     1
    u_27       OBJ        0
    u_27       budget     1
    u_28       OBJ        0
    u_28       budget     1
    u_29       OBJ        0
    u_29       budget     1
    MARKER    'MARKER'                 'INTEND'
RHS
    RHS       budget     4
BOUNDS
 LI BND       u_0        0
 UI BND       u_0        1
 LI BND       u_1        0
 UI BND       u_1        1
 LI BND       u_2        0
 UI BND       u_2        1
 LI BND       u_3        0
 UI BND       u_3        1
 LI BND       u_4        0
 UI BND       u_4        1
 LI BND       u_5        0
 UI BND       u_5        1
 LI BND       u_6        0
 UI BND       u_6        1
 LI BND       u_7        0
 UI BND       u_7        1
 LI BND       u_8        0
 UI BND       u_8        1
 LI BND       u_9        0
 UI BND       u_9        1
 LI BND       u_10       0
 UI BND       u_10       1
 LI BND       u_11       0
 UI BND       u_11       1
 LI BND       u_12       0
 UI BND       u_12       1
 LI BND       u_13       0
 UI BND       u_13       1
 LI BND       u_14       0
 UI BND       u_14       1
 LI BND       u_15       0
 UI BND       u_15       1
 LI BND       u_16       0
 UI BND       u_16       1
 LI BND       u_17       0
 UI BND       u_17       1
 LI BND       u_18       0
 UI BND       u_18       1
 LI BND       u_19       0
 UI BND       u_19       1
 LI BND       u_20       0
 UI BND       u_20       1
 LI BND       u_21       0
 UI BND       u_21       1
 LI BND       u_22       0
 UI BND       u_22       1
 LI BND       u_23       0
 UI BND       u_23       1
 LI BND       u_24       0
 UI BND       u_24       1
 LI BND       u_25       0
 UI BND       u_25       1
 LI BND       u_26       0
 UI BND       u_26       1
 LI BND       u_27       0
 UI BND       u_27       1
 LI BND       u_28       0
 UI BND       u_28       1
 LI BND       u_29       0
 UI BND       u_29       1
ENDATA
